Minimize
 obj: 0 X_0_1
Subject To
 out_0:
  + 1 X_0_1 + 1 X_0_2 + 1 X_0_3 + 1 X_0_4 + 1 X_0_5 + 1 X_0_6 + 1 X_0_7 + 1 X_0_8
  + 1 X_0_9 + 1 X_0_10 + 1 X_0_11 + 1 X_0_12 + 1 X_0_13 + 1 X_0_14
  = 1
 in_0:
  + 1 X_1_0 + 1 X_2_0 + 1 X_3_0 + 1 X_4_0 + 1 X_5_0 + 1 X_6_0 + 1 X_7_0 + 1 X_8_0
  + 1 X_9_0 + 1 X_10_0 + 1 X_11_0 + 1 X_12_0 + 1 X_13_0 + 1 X_14_0
  = 1
 out_1:
  + 1 X_1_0 + 1 X_1_2 + 1 X_1_3 + 1 X_1_4 + 1 X_1_5 + 1 X_1_6 + 1 X_1_7 + 1 X_1_8
  + 1 X_1_9 + 1 X_1_10 + 1 X_1_11 + 1 X_1_12 + 1 X_1_13 + 1 X_1_14
  = 1
 in_1:
  + 1 X_0_1 + 1 X_2_1 + 1 X_3_1 + 1 X_4_1 + 1 X_5_1 + 1 X_6_1 + 1 X_7_1 + 1 X_8_1
  + 1 X_9_1 + 1 X_10_1 + 1 X_11_1 + 1 X_12_1 + 1 X_13_1 + 1 X_14_1
  = 1
 out_2:
  + 1 X_2_0 + 1 X_2_1 + 1 X_2_3 + 1 X_2_4 + 1 X_2_5 + 1 X_2_6 + 1 X_2_7 + 1 X_2_8
  + 1 X_2_9 + 1 X_2_10 + 1 X_2_11 + 1 X_2_12 + 1 X_2_13 + 1 X_2_14
  = 1
 in_2:
  + 1 X_0_2 + 1 X_1_2 + 1 X_3_2 + 1 X_4_2 + 1 X_5_2 + 1 X_6_2 + 1 X_7_2 + 1 X_8_2
  + 1 X_9_2 + 1 X_10_2 + 1 X_11_2 + 1 X_12_2 + 1 X_13_2 + 1 X_14_2
  = 1
 out_3:
  + 1 X_3_0 + 1 X_3_1 + 1 X_3_2 + 1 X_3_4 + 1 X_3_5 + 1 X_3_6 + 1 X_3_7 + 1 X_3_8
  + 1 X_3_9 + 1 X_3_10 + 1 X_3_11 + 1 X_3_12 + 1 X_3_13 + 1 X_3_14
  = 1
 in_3:
  + 1 X_0_3 + 1 X_1_3 + 1 X_2_3 + 1 X_4_3 + 1 X_5_3 + 1 X_6_3 + 1 X_7_3 + 1 X_8_3
  + 1 X_9_3 + 1 X_10_3 + 1 X_11_3 + 1 X_12_3 + 1 X_13_3 + 1 X_14_3
  = 1
 out_4:
  + 1 X_4_0 + 1 X_4_1 + 1 X_4_2 + 1 X_4_3 + 1 X_4_5 + 1 X_4_6 + 1 X_4_7 + 1 X_4_8
  + 1 X_4_9 + 1 X_4_10 + 1 X_4_11 + 1 X_4_12 + 1 X_4_13 + 1 X_4_14
  = 1
 in_4:
  + 1 X_0_4 + 1 X_1_4 + 1 X_2_4 + 1 X_3_4 + 1 X_5_4 + 1 X_6_4 + 1 X_7_4 + 1 X_8_4
  + 1 X_9_4 + 1 X_10_4 + 1 X_11_4 + 1 X_12_4 + 1 X_13_4 + 1 X_14_4
  = 1
 out_5:
  + 1 X_5_0 + 1 X_5_1 + 1 X_5_2 + 1 X_5_3 + 1 X_5_4 + 1 X_5_6 + 1 X_5_7 + 1 X_5_8
  + 1 X_5_9 + 1 X_5_10 + 1 X_5_11 + 1 X_5_12 + 1 X_5_13 + 1 X_5_14
  = 1
 in_5:
  + 1 X_0_5 + 1 X_1_5 + 1 X_2_5 + 1 X_3_5 + 1 X_4_5 + 1 X_6_5 + 1 X_7_5 + 1 X_8_5
  + 1 X_9_5 + 1 X_10_5 + 1 X_11_5 + 1 X_12_5 + 1 X_13_5 + 1 X_14_5
  = 1
 out_6:
  + 1 X_6_0 + 1 X_6_1 + 1 X_6_2 + 1 X_6_3 + 1 X_6_4 + 1 X_6_5 + 1 X_6_7 + 1 X_6_8
  + 1 X_6_9 + 1 X_6_10 + 1 X_6_11 + 1 X_6_12 + 1 X_6_13 + 1 X_6_14
  = 1
 in_6:
  + 1 X_0_6 + 1 X_1_6 + 1 X_2_6 + 1 X_3_6 + 1 X_4_6 + 1 X_5_6 + 1 X_7_6 + 1 X_8_6
  + 1 X_9_6 + 1 X_10_6 + 1 X_11_6 + 1 X_12_6 + 1 X_13_6 + 1 X_14_6
  = 1
 out_7:
  + 1 X_7_0 + 1 X_7_1 + 1 X_7_2 + 1 X_7_3 + 1 X_7_4 + 1 X_7_5 + 1 X_7_6 + 1 X_7_8
  + 1 X_7_9 + 1 X_7_10 + 1 X_7_11 + 1 X_7_12 + 1 X_7_13 + 1 X_7_14
  = 1
 in_7:
  + 1 X_0_7 + 1 X_1_7 + 1 X_2_7 + 1 X_3_7 + 1 X_4_7 + 1 X_5_7 + 1 X_6_7 + 1 X_8_7
  + 1 X_9_7 + 1 X_10_7 + 1 X_11_7 + 1 X_12_7 + 1 X_13_7 + 1 X_14_7
  = 1
 out_8:
  + 1 X_8_0 + 1 X_8_1 + 1 X_8_2 + 1 X_8_3 + 1 X_8_4 + 1 X_8_5 + 1 X_8_6 + 1 X_8_7
  + 1 X_8_9 + 1 X_8_10 + 1 X_8_11 + 1 X_8_12 + 1 X_8_13 + 1 X_8_14
  = 1
 in_8:
  + 1 X_0_8 + 1 X_1_8 + 1 X_2_8 + 1 X_3_8 + 1 X_4_8 + 1 X_5_8 + 1 X_6_8 + 1 X_7_8
  + 1 X_9_8 + 1 X_10_8 + 1 X_11_8 + 1 X_12_8 + 1 X_13_8 + 1 X_14_8
  = 1
 out_9:
  + 1 X_9_0 + 1 X_9_1 + 1 X_9_2 + 1 X_9_3 + 1 X_9_4 + 1 X_9_5 + 1 X_9_6 + 1 X_9_7
  + 1 X_9_8 + 1 X_9_10 + 1 X_9_11 + 1 X_9_12 + 1 X_9_13 + 1 X_9_14
  = 1
 in_9:
  + 1 X_0_9 + 1 X_1_9 + 1 X_2_9 + 1 X_3_9 + 1 X_4_9 + 1 X_5_9 + 1 X_6_9 + 1 X_7_9
  + 1 X_8_9 + 1 X_10_9 + 1 X_11_9 + 1 X_12_9 + 1 X_13_9 + 1 X_14_9
  = 1
 out_10:
  + 1 X_10_0 + 1 X_10_1 + 1 X_10_2 + 1 X_10_3 + 1 X_10_4 + 1 X_10_5 + 1 X_10_6 + 1 X_10_7
  + 1 X_10_8 + 1 X_10_9 + 1 X_10_11 + 1 X_10_12 + 1 X_10_13 + 1 X_10_14
  = 1
 in_10:
  + 1 X_0_10 + 1 X_1_10 + 1 X_2_10 + 1 X_3_10 + 1 X_4_10 + 1 X_5_10 + 1 X_6_10 + 1 X_7_10
  + 1 X_8_10 + 1 X_9_10 + 1 X_11_10 + 1 X_12_10 + 1 X_13_10 + 1 X_14_10
  = 1
 out_11:
  + 1 X_11_0 + 1 X_11_1 + 1 X_11_2 + 1 X_11_3 + 1 X_11_4 + 1 X_11_5 + 1 X_11_6 + 1 X_11_7
  + 1 X_11_8 + 1 X_11_9 + 1 X_11_10 + 1 X_11_12 + 1 X_11_13 + 1 X_11_14
  = 1
 in_11:
  + 1 X_0_11 + 1 X_1_11 + 1 X_2_11 + 1 X_3_11 + 1 X_4_11 + 1 X_5_11 + 1 X_6_11 + 1 X_7_11
  + 1 X_8_11 + 1 X_9_11 + 1 X_10_11 + 1 X_12_11 + 1 X_13_11 + 1 X_14_11
  = 1
 out_12:
  + 1 X_12_0 + 1 X_12_1 + 1 X_12_2 + 1 X_12_3 + 1 X_12_4 + 1 X_12_5 + 1 X_12_6 + 1 X_12_7
  + 1 X_12_8 + 1 X_12_9 + 1 X_12_10 + 1 X_12_11 + 1 X_12_13 + 1 X_12_14
  = 1
 in_12:
  + 1 X_0_12 + 1 X_1_12 + 1 X_2_12 + 1 X_3_12 + 1 X_4_12 + 1 X_5_12 + 1 X_6_12 + 1 X_7_12
  + 1 X_8_12 + 1 X_9_12 + 1 X_10_12 + 1 X_11_12 + 1 X_13_12 + 1 X_14_12
  = 1
 out_13:
  + 1 X_13_0 + 1 X_13_1 + 1 X_13_2 + 1 X_13_3 + 1 X_13_4 + 1 X_13_5 + 1 X_13_6 + 1 X_13_7
  + 1 X_13_8 + 1 X_13_9 + 1 X_13_10 + 1 X_13_11 + 1 X_13_12 + 1 X_13_14
  = 1
 in_13:
  + 1 X_0_13 + 1 X_1_13 + 1 X_2_13 + 1 X_3_13 + 1 X_4_13 + 1 X_5_13 + 1 X_6_13 + 1 X_7_13
  + 1 X_8_13 + 1 X_9_13 + 1 X_10_13 + 1 X_11_13 + 1 X_12_13 + 1 X_14_13
  = 1
 out_14:
  + 1 X_14_0 + 1 X_14_1 + 1 X_14_2 + 1 X_14_3 + 1 X_14_4 + 1 X_14_5 + 1 X_14_6 + 1 X_14_7
  + 1 X_14_8 + 1 X_14_9 + 1 X_14_10 + 1 X_14_11 + 1 X_14_12 + 1 X_14_13
  = 1
 in_14:
  + 1 X_0_14 + 1 X_1_14 + 1 X_2_14 + 1 X_3_14 + 1 X_4_14 + 1 X_5_14 + 1 X_6_14 + 1 X_7_14
  + 1 X_8_14 + 1 X_9_14 + 1 X_10_14 + 1 X_11_14 + 1 X_12_14 + 1 X_13_14
  = 1
 mtz_1_2:
  + 1 U1 - 1 U2 + 14 X_1_2
  <= 13
 mtz_1_3:
  + 1 U1 - 1 U3 + 14 X_1_3
  <= 13
 mtz_1_4:
  + 1 U1 - 1 U4 + 14 X_1_4
  <= 13
 mtz_1_5:
  + 1 U1 - 1 U5 + 14 X_1_5
  <= 13
 mtz_1_6:
  + 1 U1 - 1 U6 + 14 X_1_6
  <= 13
 mtz_1_7:
  + 1 U1 - 1 U7 + 14 X_1_7
  <= 13
 mtz_1_8:
  + 1 U1 - 1 U8 + 14 X_1_8
  <= 13
 mtz_1_9:
  + 1 U1 - 1 U9 + 14 X_1_9
  <= 13
 mtz_1_10:
  + 1 U1 - 1 U10 + 14 X_1_10
  <= 13
 mtz_1_11:
  + 1 U1 - 1 U11 + 14 X_1_11
  <= 13
 mtz_1_12:
  + 1 U1 - 1 U12 + 14 X_1_12
  <= 13
 mtz_1_13:
  + 1 U1 - 1 U13 + 14 X_1_13
  <= 13
 mtz_1_14:
  + 1 U1 - 1 U14 + 14 X_1_14
  <= 13
 mtz_2_1:
  + 1 U2 - 1 U1 + 14 X_2_1
  <= 13
 mtz_2_3:
  + 1 U2 - 1 U3 + 14 X_2_3
  <= 13
 mtz_2_4:
  + 1 U2 - 1 U4 + 14 X_2_4
  <= 13
 mtz_2_5:
  + 1 U2 - 1 U5 + 14 X_2_5
  <= 13
 mtz_2_6:
  + 1 U2 - 1 U6 + 14 X_2_6
  <= 13
 mtz_2_7:
  + 1 U2 - 1 U7 + 14 X_2_7
  <= 13
 mtz_2_8:
  + 1 U2 - 1 U8 + 14 X_2_8
  <= 13
 mtz_2_9:
  + 1 U2 - 1 U9 + 14 X_2_9
  <= 13
 mtz_2_10:
  + 1 U2 - 1 U10 + 14 X_2_10
  <= 13
 mtz_2_11:
  + 1 U2 - 1 U11 + 14 X_2_11
  <= 13
 mtz_2_12:
  + 1 U2 - 1 U12 + 14 X_2_12
  <= 13
 mtz_2_13:
  + 1 U2 - 1 U13 + 14 X_2_13
  <= 13
 mtz_2_14:
  + 1 U2 - 1 U14 + 14 X_2_14
  <= 13
 mtz_3_1:
  + 1 U3 - 1 U1 + 14 X_3_1
  <= 13
 mtz_3_2:
  + 1 U3 - 1 U2 + 14 X_3_2
  <= 13
 mtz_3_4:
  + 1 U3 - 1 U4 + 14 X_3_4
  <= 13
 mtz_3_5:
  + 1 U3 - 1 U5 + 14 X_3_5
  <= 13
 mtz_3_6:
  + 1 U3 - 1 U6 + 14 X_3_6
  <= 13
 mtz_3_7:
  + 1 U3 - 1 U7 + 14 X_3_7
  <= 13
 mtz_3_8:
  + 1 U3 - 1 U8 + 14 X_3_8
  <= 13
 mtz_3_9:
  + 1 U3 - 1 U9 + 14 X_3_9
  <= 13
 mtz_3_10:
  + 1 U3 - 1 U10 + 14 X_3_10
  <= 13
 mtz_3_11:
  + 1 U3 - 1 U11 + 14 X_3_11
  <= 13
 mtz_3_12:
  + 1 U3 - 1 U12 + 14 X_3_12
  <= 13
 mtz_3_13:
  + 1 U3 - 1 U13 + 14 X_3_13
  <= 13
 mtz_3_14:
  + 1 U3 - 1 U14 + 14 X_3_14
  <= 13
 mtz_4_1:
  + 1 U4 - 1 U1 + 14 X_4_1
  <= 13
 mtz_4_2:
  + 1 U4 - 1 U2 + 14 X_4_2
  <= 13
 mtz_4_3:
  + 1 U4 - 1 U3 + 14 X_4_3
  <= 13
 mtz_4_5:
  + 1 U4 - 1 U5 + 14 X_4_5
  <= 13
 mtz_4_6:
  + 1 U4 - 1 U6 + 14 X_4_6
  <= 13
 mtz_4_7:
  + 1 U4 - 1 U7 + 14 X_4_7
  <= 13
 mtz_4_8:
  + 1 U4 - 1 U8 + 14 X_4_8
  <= 13
 mtz_4_9:
  + 1 U4 - 1 U9 + 14 X_4_9
  <= 13
 mtz_4_10:
  + 1 U4 - 1 U10 + 14 X_4_10
  <= 13
 mtz_4_11:
  + 1 U4 - 1 U11 + 14 X_4_11
  <= 13
 mtz_4_12:
  + 1 U4 - 1 U12 + 14 X_4_12
  <= 13
 mtz_4_13:
  + 1 U4 - 1 U13 + 14 X_4_13
  <= 13
 mtz_4_14:
  + 1 U4 - 1 U14 + 14 X_4_14
  <= 13
 mtz_5_1:
  + 1 U5 - 1 U1 + 14 X_5_1
  <= 13
 mtz_5_2:
  + 1 U5 - 1 U2 + 14 X_5_2
  <= 13
 mtz_5_3:
  + 1 U5 - 1 U3 + 14 X_5_3
  <= 13
 mtz_5_4:
  + 1 U5 - 1 U4 + 14 X_5_4
  <= 13
 mtz_5_6:
  + 1 U5 - 1 U6 + 14 X_5_6
  <= 13
 mtz_5_7:
  + 1 U5 - 1 U7 + 14 X_5_7
  <= 13
 mtz_5_8:
  + 1 U5 - 1 U8 + 14 X_5_8
  <= 13
 mtz_5_9:
  + 1 U5 - 1 U9 + 14 X_5_9
  <= 13
 mtz_5_10:
  + 1 U5 - 1 U10 + 14 X_5_10
  <= 13
 mtz_5_11:
  + 1 U5 - 1 U11 + 14 X_5_11
  <= 13
 mtz_5_12:
  + 1 U5 - 1 U12 + 14 X_5_12
  <= 13
 mtz_5_13:
  + 1 U5 - 1 U13 + 14 X_5_13
  <= 13
 mtz_5_14:
  + 1 U5 - 1 U14 + 14 X_5_14
  <= 13
 mtz_6_1:
  + 1 U6 - 1 U1 + 14 X_6_1
  <= 13
 mtz_6_2:
  + 1 U6 - 1 U2 + 14 X_6_2
  <= 13
 mtz_6_3:
  + 1 U6 - 1 U3 + 14 X_6_3
  <= 13
 mtz_6_4:
  + 1 U6 - 1 U4 + 14 X_6_4
  <= 13
 mtz_6_5:
  + 1 U6 - 1 U5 + 14 X_6_5
  <= 13
 mtz_6_7:
  + 1 U6 - 1 U7 + 14 X_6_7
  <= 13
 mtz_6_8:
  + 1 U6 - 1 U8 + 14 X_6_8
  <= 13
 mtz_6_9:
  + 1 U6 - 1 U9 + 14 X_6_9
  <= 13
 mtz_6_10:
  + 1 U6 - 1 U10 + 14 X_6_10
  <= 13
 mtz_6_11:
  + 1 U6 - 1 U11 + 14 X_6_11
  <= 13
 mtz_6_12:
  + 1 U6 - 1 U12 + 14 X_6_12
  <= 13
 mtz_6_13:
  + 1 U6 - 1 U13 + 14 X_6_13
  <= 13
 mtz_6_14:
  + 1 U6 - 1 U14 + 14 X_6_14
  <= 13
 mtz_7_1:
  + 1 U7 - 1 U1 + 14 X_7_1
  <= 13
 mtz_7_2:
  + 1 U7 - 1 U2 + 14 X_7_2
  <= 13
 mtz_7_3:
  + 1 U7 - 1 U3 + 14 X_7_3
  <= 13
 mtz_7_4:
  + 1 U7 - 1 U4 + 14 X_7_4
  <= 13
 mtz_7_5:
  + 1 U7 - 1 U5 + 14 X_7_5
  <= 13
 mtz_7_6:
  + 1 U7 - 1 U6 + 14 X_7_6
  <= 13
 mtz_7_8:
  + 1 U7 - 1 U8 + 14 X_7_8
  <= 13
 mtz_7_9:
  + 1 U7 - 1 U9 + 14 X_7_9
  <= 13
 mtz_7_10:
  + 1 U7 - 1 U10 + 14 X_7_10
  <= 13
 mtz_7_11:
  + 1 U7 - 1 U11 + 14 X_7_11
  <= 13
 mtz_7_12:
  + 1 U7 - 1 U12 + 14 X_7_12
  <= 13
 mtz_7_13:
  + 1 U7 - 1 U13 + 14 X_7_13
  <= 13
 mtz_7_14:
  + 1 U7 - 1 U14 + 14 X_7_14
  <= 13
 mtz_8_1:
  + 1 U8 - 1 U1 + 14 X_8_1
  <= 13
 mtz_8_2:
  + 1 U8 - 1 U2 + 14 X_8_2
  <= 13
 mtz_8_3:
  + 1 U8 - 1 U3 + 14 X_8_3
  <= 13
 mtz_8_4:
  + 1 U8 - 1 U4 + 14 X_8_4
  <= 13
 mtz_8_5:
  + 1 U8 - 1 U5 + 14 X_8_5
  <= 13
 mtz_8_6:
  + 1 U8 - 1 U6 + 14 X_8_6
  <= 13
 mtz_8_7:
  + 1 U8 - 1 U7 + 14 X_8_7
  <= 13
 mtz_8_9:
  + 1 U8 - 1 U9 + 14 X_8_9
  <= 13
 mtz_8_10:
  + 1 U8 - 1 U10 + 14 X_8_10
  <= 13
 mtz_8_11:
  + 1 U8 - 1 U11 + 14 X_8_11
  <= 13
 mtz_8_12:
  + 1 U8 - 1 U12 + 14 X_8_12
  <= 13
 mtz_8_13:
  + 1 U8 - 1 U13 + 14 X_8_13
  <= 13
 mtz_8_14:
  + 1 U8 - 1 U14 + 14 X_8_14
  <= 13
 mtz_9_1:
  + 1 U9 - 1 U1 + 14 X_9_1
  <= 13
 mtz_9_2:
  + 1 U9 - 1 U2 + 14 X_9_2
  <= 13
 mtz_9_3:
  + 1 U9 - 1 U3 + 14 X_9_3
  <= 13
 mtz_9_4:
  + 1 U9 - 1 U4 + 14 X_9_4
  <= 13
 mtz_9_5:
  + 1 U9 - 1 U5 + 14 X_9_5
  <= 13
 mtz_9_6:
  + 1 U9 - 1 U6 + 14 X_9_6
  <= 13
 mtz_9_7:
  + 1 U9 - 1 U7 + 14 X_9_7
  <= 13
 mtz_9_8:
  + 1 U9 - 1 U8 + 14 X_9_8
  <= 13
 mtz_9_10:
  + 1 U9 - 1 U10 + 14 X_9_10
  <= 13
 mtz_9_11:
  + 1 U9 - 1 U11 + 14 X_9_11
  <= 13
 mtz_9_12:
  + 1 U9 - 1 U12 + 14 X_9_12
  <= 13
 mtz_9_13:
  + 1 U9 - 1 U13 + 14 X_9_13
  <= 13
 mtz_9_14:
  + 1 U9 - 1 U14 + 14 X_9_14
  <= 13
 mtz_10_1:
  + 1 U10 - 1 U1 + 14 X_10_1
  <= 13
 mtz_10_2:
  + 1 U10 - 1 U2 + 14 X_10_2
  <= 13
 mtz_10_3:
  + 1 U10 - 1 U3 + 14 X_10_3
  <= 13
 mtz_10_4:
  + 1 U10 - 1 U4 + 14 X_10_4
  <= 13
 mtz_10_5:
  + 1 U10 - 1 U5 + 14 X_10_5
  <= 13
 mtz_10_6:
  + 1 U10 - 1 U6 + 14 X_10_6
  <= 13
 mtz_10_7:
  + 1 U10 - 1 U7 + 14 X_10_7
  <= 13
 mtz_10_8:
  + 1 U10 - 1 U8 + 14 X_10_8
  <= 13
 mtz_10_9:
  + 1 U10 - 1 U9 + 14 X_10_9
  <= 13
 mtz_10_11:
  + 1 U10 - 1 U11 + 14 X_10_11
  <= 13
 mtz_10_12:
  + 1 U10 - 1 U12 + 14 X_10_12
  <= 13
 mtz_10_13:
  + 1 U10 - 1 U13 + 14 X_10_13
  <= 13
 mtz_10_14:
  + 1 U10 - 1 U14 + 14 X_10_14
  <= 13
 mtz_11_1:
  + 1 U11 - 1 U1 + 14 X_11_1
  <= 13
 mtz_11_2:
  + 1 U11 - 1 U2 + 14 X_11_2
  <= 13
 mtz_11_3:
  + 1 U11 - 1 U3 + 14 X_11_3
  <= 13
 mtz_11_4:
  + 1 U11 - 1 U4 + 14 X_11_4
  <= 13
 mtz_11_5:
  + 1 U11 - 1 U5 + 14 X_11_5
  <= 13
 mtz_11_6:
  + 1 U11 - 1 U6 + 14 X_11_6
  <= 13
 mtz_11_7:
  + 1 U11 - 1 U7 + 14 X_11_7
  <= 13
 mtz_11_8:
  + 1 U11 - 1 U8 + 14 X_11_8
  <= 13
 mtz_11_9:
  + 1 U11 - 1 U9 + 14 X_11_9
  <= 13
 mtz_11_10:
  + 1 U11 - 1 U10 + 14 X_11_10
  <= 13
 mtz_11_12:
  + 1 U11 - 1 U12 + 14 X_11_12
  <= 13
 mtz_11_13:
  + 1 U11 - 1 U13 + 14 X_11_13
  <= 13
 mtz_11_14:
  + 1 U11 - 1 U14 + 14 X_11_14
  <= 13
 mtz_12_1:
  + 1 U12 - 1 U1 + 14 X_12_1
  <= 13
 mtz_12_2:
  + 1 U12 - 1 U2 + 14 X_12_2
  <= 13
 mtz_12_3:
  + 1 U12 - 1 U3 + 14 X_12_3
  <= 13
 mtz_12_4:
  + 1 U12 - 1 U4 + 14 X_12_4
  <= 13
 mtz_12_5:
  + 1 U12 - 1 U5 + 14 X_12_5
  <= 13
 mtz_12_6:
  + 1 U12 - 1 U6 + 14 X_12_6
  <= 13
 mtz_12_7:
  + 1 U12 - 1 U7 + 14 X_12_7
  <= 13
 mtz_12_8:
  + 1 U12 - 1 U8 + 14 X_12_8
  <= 13
 mtz_12_9:
  + 1 U12 - 1 U9 + 14 X_12_9
  <= 13
 mtz_12_10:
  + 1 U12 - 1 U10 + 14 X_12_10
  <= 13
 mtz_12_11:
  + 1 U12 - 1 U11 + 14 X_12_11
  <= 13
 mtz_12_13:
  + 1 U12 - 1 U13 + 14 X_12_13
  <= 13
 mtz_12_14:
  + 1 U12 - 1 U14 + 14 X_12_14
  <= 13
 mtz_13_1:
  + 1 U13 - 1 U1 + 14 X_13_1
  <= 13
 mtz_13_2:
  + 1 U13 - 1 U2 + 14 X_13_2
  <= 13
 mtz_13_3:
  + 1 U13 - 1 U3 + 14 X_13_3
  <= 13
 mtz_13_4:
  + 1 U13 - 1 U4 + 14 X_13_4
  <= 13
 mtz_13_5:
  + 1 U13 - 1 U5 + 14 X_13_5
  <= 13
 mtz_13_6:
  + 1 U13 - 1 U6 + 14 X_13_6
  <= 13
 mtz_13_7:
  + 1 U13 - 1 U7 + 14 X_13_7
  <= 13
 mtz_13_8:
  + 1 U13 - 1 U8 + 14 X_13_8
  <= 13
 mtz_13_9:
  + 1 U13 - 1 U9 + 14 X_13_9
  <= 13
 mtz_13_10:
  + 1 U13 - 1 U10 + 14 X_13_10
  <= 13
 mtz_13_11:
  + 1 U13 - 1 U11 + 14 X_13_11
  <= 13
 mtz_13_12:
  + 1 U13 - 1 U12 + 14 X_13_12
  <= 13
 mtz_13_14:
  + 1 U13 - 1 U14 + 14 X_13_14
  <= 13
 mtz_14_1:
  + 1 U14 - 1 U1 + 14 X_14_1
  <= 13
 mtz_14_2:
  + 1 U14 - 1 U2 + 14 X_14_2
  <= 13
 mtz_14_3:
  + 1 U14 - 1 U3 + 14 X_14_3
  <= 13
 mtz_14_4:
  + 1 U14 - 1 U4 + 14 X_14_4
  <= 13
 mtz_14_5:
  + 1 U14 - 1 U5 + 14 X_14_5
  <= 13
 mtz_14_6:
  + 1 U14 - 1 U6 + 14 X_14_6
  <= 13
 mtz_14_7:
  + 1 U14 - 1 U7 + 14 X_14_7
  <= 13
 mtz_14_8:
  + 1 U14 - 1 U8 + 14 X_14_8
  <= 13
 mtz_14_9:
  + 1 U14 - 1 U9 + 14 X_14_9
  <= 13
 mtz_14_10:
  + 1 U14 - 1 U10 + 14 X_14_10
  <= 13
 mtz_14_11:
  + 1 U14 - 1 U11 + 14 X_14_11
  <= 13
 mtz_14_12:
  + 1 U14 - 1 U12 + 14 X_14_12
  <= 13
 mtz_14_13:
  + 1 U14 - 1 U13 + 14 X_14_13
  <= 13
 obj1:
  + 665 X_0_1 + 558 X_0_2 + 835 X_0_3 + 306 X_0_4 + 381 X_0_5 + 373 X_0_6 + 239 X_0_7 + 681 X_0_8
  + 717 X_0_9 + 131 X_0_10 + 543 X_0_11 + 201 X_0_12 + 505 X_0_13 + 299 X_0_14 + 665 X_1_0 + 181 X_1_2
  + 252 X_1_3 + 898 X_1_4 + 975 X_1_5 + 515 X_1_6 + 483 X_1_7 + 525 X_1_8 + 439 X_1_9 + 618 X_1_10
  + 785 X_1_11 + 864 X_1_12 + 878 X_1_13 + 725 X_1_14 + 558 X_2_0 + 181 X_2_1 + 433 X_2_3 + 828 X_2_4
  + 908 X_2_5 + 341 X_2_6 + 433 X_2_7 + 627 X_2_8 + 564 X_2_9 + 484 X_2_10 + 807 X_2_11 + 758 X_2_12
  + 872 X_2_13 + 563 X_2_14 + 835 X_3_0 + 252 X_3_1 + 433 X_3_2 + 1012 X_3_4 + 1084 X_3_5 + 756 X_3_6
  + 614 X_3_7 + 437 X_3_8 + 323 X_3_9 + 818 X_3_10 + 789 X_3_11 + 1024 X_3_12 + 913 X_3_13 + 951 X_3_14
  + 306 X_4_0 + 898 X_4_1 + 828 X_4_2 + 1012 X_4_3 + 79 X_4_5 + 679 X_4_6 + 414 X_4_7 + 726 X_4_8
  + 803 X_4_9 + 434 X_4_10 + 425 X_4_11 + 203 X_4_12 + 310 X_4_13 + 567 X_4_14 + 381 X_5_0 + 975 X_5_1
  + 908 X_5_2 + 1084 X_5_3 + 79 X_5_4 + 754 X_5_6 + 491 X_5_7 + 780 X_5_8 + 863 X_5_9 + 507 X_5_10
  + 453 X_5_11 + 251 X_5_12 + 321 X_5_13 + 629 X_5_14 + 373 X_6_0 + 515 X_6_1 + 341 X_6_2 + 756 X_6_3
  + 679 X_6_4 + 754 X_6_5 + 422 X_6_7 + 813 X_6_8 + 793 X_6_9 + 247 X_6_10 + 837 X_6_11 + 538 X_6_12
  + 843 X_6_13 + 234 X_6_14 + 239 X_7_0 + 483 X_7_1 + 433 X_7_2 + 614 X_7_3 + 414 X_7_4 + 491 X_7_5
  + 422 X_7_6 + 450 X_7_8 + 478 X_7_9 + 288 X_7_10 + 418 X_7_11 + 412 X_7_12 + 449 X_7_13 + 473 X_7_14
  + 681 X_8_0 + 525 X_8_1 + 627 X_8_2 + 437 X_8_3 + 726 X_8_4 + 780 X_8_5 + 813 X_8_6 + 450 X_8_7
  + 116 X_8_9 + 737 X_8_10 + 386 X_8_11 + 818 X_8_12 + 529 X_8_13 + 918 X_8_14 + 717 X_9_0 + 439 X_9_1
  + 564 X_9_2 + 323 X_9_3 + 803 X_9_4 + 863 X_9_5 + 793 X_9_6 + 478 X_9_7 + 116 X_9_8 + 753 X_9_10
  + 494 X_9_11 + 872 X_9_12 + 633 X_9_13 + 925 X_9_14 + 131 X_10_0 + 618 X_10_1 + 484 X_10_2 + 818 X_10_3
  + 434 X_10_4 + 507 X_10_5 + 247 X_10_6 + 288 X_10_7 + 737 X_10_8 + 753 X_10_9 + 655 X_10_11 + 294 X_10_12
  + 630 X_10_13 + 188 X_10_14 + 543 X_11_0 + 785 X_11_1 + 807 X_11_2 + 789 X_11_3 + 425 X_11_4 + 453 X_11_5
  + 837 X_11_6 + 418 X_11_7 + 386 X_11_8 + 494 X_11_9 + 655 X_11_10 + 587 X_11_12 + 150 X_11_13 + 840 X_11_14
  + 201 X_12_0 + 864 X_12_1 + 758 X_12_2 + 1024 X_12_3 + 203 X_12_4 + 251 X_12_5 + 538 X_12_6 + 412 X_12_7
  + 818 X_12_8 + 872 X_12_9 + 294 X_12_10 + 587 X_12_11 + 497 X_12_13 + 383 X_12_14 + 505 X_13_0 + 878 X_13_1
  + 872 X_13_2 + 913 X_13_3 + 310 X_13_4 + 321 X_13_5 + 843 X_13_6 + 449 X_13_7 + 529 X_13_8 + 633 X_13_9
  + 630 X_13_10 + 150 X_13_11 + 497 X_13_12 + 803 X_13_14 + 299 X_14_0 + 725 X_14_1 + 563 X_14_2 + 951 X_14_3
  + 567 X_14_4 + 629 X_14_5 + 234 X_14_6 + 473 X_14_7 + 918 X_14_8 + 925 X_14_9 + 188 X_14_10 + 840 X_14_11
  + 383 X_14_12 + 803 X_14_13
  <= 1
 obj2:
  + 260 X_0_1 + 566 X_0_2 + 653 X_0_3 + 768 X_0_4 + 149 X_0_5 + 525 X_0_6 + 355 X_0_7 + 323 X_0_8
  + 654 X_0_9 + 339 X_0_10 + 743 X_0_11 + 272 X_0_12 + 637 X_0_13 + 399 X_0_14 + 260 X_1_0 + 819 X_1_2
  + 869 X_1_3 + 909 X_1_4 + 352 X_1_5 + 413 X_1_6 + 609 X_1_7 + 157 X_1_8 + 532 X_1_9 + 591 X_1_10
  + 866 X_1_11 + 339 X_1_12 + 765 X_1_13 + 139 X_1_14 + 566 X_2_0 + 819 X_2_1 + 259 X_2_3 + 573 X_2_4
  + 478 X_2_5 + 908 X_2_6 + 211 X_2_7 + 885 X_2_8 + 1011 X_2_9 + 356 X_2_10 + 610 X_2_11 + 734 X_2_12
  + 544 X_2_13 + 951 X_2_14 + 653 X_3_0 + 869 X_3_1 + 259 X_3_2 + 325 X_3_4 + 520 X_3_5 + 833 X_3_6
  + 355 X_3_7 + 972 X_3_8 + 911 X_3_9 + 563 X_3_10 + 375 X_3_11 + 881 X_3_12 + 336 X_3_13 + 983 X_3_14
  + 768 X_4_0 + 909 X_4_1 + 573 X_4_2 + 325 X_4_3 + 618 X_4_5 + 719 X_4_6 + 592 X_4_7 + 1046 X_4_8
  + 755 X_4_9 + 809 X_4_10 + 76 X_4_11 + 1034 X_4_12 + 145 X_4_13 + 990 X_4_14 + 149 X_5_0 + 352 X_5_1
  + 478 X_5_2 + 520 X_5_3 + 618 X_5_4 + 482 X_5_6 + 276 X_5_7 + 453 X_5_8 + 604 X_5_9 + 355 X_5_10
  + 595 X_5_11 + 418 X_5_12 + 489 X_5_13 + 477 X_5_14 + 525 X_6_0 + 413 X_6_1 + 908 X_6_2 + 833 X_6_3
  + 719 X_6_4 + 482 X_6_5 + 738 X_6_7 + 565 X_6_8 + 128 X_6_9 + 835 X_6_10 + 652 X_6_11 + 730 X_6_12
  + 581 X_6_13 + 391 X_6_14 + 355 X_7_0 + 609 X_7_1 + 211 X_7_2 + 355 X_7_3 + 592 X_7_4 + 276 X_7_5
  + 738 X_7_6 + 674 X_7_8 + 851 X_7_9 + 218 X_7_10 + 603 X_7_11 + 539 X_7_12 + 511 X_7_13 + 743 X_7_14
  + 323 X_8_0 + 157 X_8_1 + 885 X_8_2 + 972 X_8_3 + 1046 X_8_4 + 453 X_8_5 + 565 X_8_6 + 674 X_8_7
  + 679 X_8_9 + 604 X_8_10 + 1008 X_8_11 + 256 X_8_12 + 905 X_8_13 + 211 X_8_14 + 654 X_9_0 + 532 X_9_1
  + 1011 X_9_2 + 911 X_9_3 + 755 X_9_4 + 604 X_9_5 + 128 X_9_6 + 851 X_9_7 + 679 X_9_8 + 959 X_9_10
  + 683 X_9_11 + 856 X_9_12 + 628 X_9_13 + 491 X_9_14 + 339 X_10_0 + 591 X_10_1 + 356 X_10_2 + 563 X_10_3
  + 809 X_10_4 + 355 X_10_5 + 835 X_10_6 + 218 X_10_7 + 604 X_10_8 + 959 X_10_9 + 817 X_10_11 + 402 X_10_12
  + 721 X_10_13 + 730 X_10_14 + 743 X_11_0 + 866 X_11_1 + 610 X_11_2 + 375 X_11_3 + 76 X_11_4 + 595 X_11_5
  + 652 X_11_6 + 603 X_11_7 + 1008 X_11_8 + 683 X_11_9 + 817 X_11_10 + 1013 X_11_12 + 106 X_11_13 + 939 X_11_14
  + 272 X_12_0 + 339 X_12_1 + 734 X_12_2 + 881 X_12_3 + 1034 X_12_4 + 418 X_12_5 + 730 X_12_6 + 539 X_12_7
  + 256 X_12_8 + 856 X_12_9 + 402 X_12_10 + 1013 X_12_11 + 907 X_12_13 + 450 X_12_14 + 637 X_13_0 + 765 X_13_1
  + 544 X_13_2 + 336 X_13_3 + 145 X_13_4 + 489 X_13_5 + 581 X_13_6 + 511 X_13_7 + 905 X_13_8 + 628 X_13_9
  + 721 X_13_10 + 106 X_13_11 + 907 X_13_12 + 844 X_13_14 + 399 X_14_0 + 139 X_14_1 + 951 X_14_2 + 983 X_14_3
  + 990 X_14_4 + 477 X_14_5 + 391 X_14_6 + 743 X_14_7 + 211 X_14_8 + 491 X_14_9 + 730 X_14_10 + 939 X_14_11
  + 450 X_14_12 + 844 X_14_13
  <= 2
 obj3:
  + 484 X_0_1 + 393 X_0_2 + 90 X_0_3 + 493 X_0_4 + 48 X_0_5 + 228 X_0_6 + 403 X_0_7 + 264 X_0_8
  + 506 X_0_9 + 266 X_0_10 + 347 X_0_11 + 190 X_0_12 + 904 X_0_13 + 910 X_0_14 + 484 X_1_0 + 416 X_1_2
  + 479 X_1_3 + 529 X_1_4 + 507 X_1_5 + 587 X_1_6 + 492 X_1_7 + 279 X_1_8 + 206 X_1_9 + 435 X_1_10
  + 480 X_1_11 + 486 X_1_12 + 644 X_1_13 + 495 X_1_14 + 393 X_2_0 + 416 X_2_1 + 463 X_2_3 + 126 X_2_4
  + 371 X_2_5 + 301 X_2_6 + 79 X_2_7 + 446 X_2_8 + 581 X_2_9 + 570 X_2_10 + 94 X_2_11 + 231 X_2_12
  + 526 X_2_13 + 620 X_2_14 + 90 X_3_0 + 479 X_3_1 + 463 X_3_2 + 571 X_3_4 + 137 X_3_5 + 318 X_3_6
  + 482 X_3_7 + 222 X_3_8 + 464 X_3_9 + 181 X_3_10 + 428 X_3_11 + 277 X_3_12 + 958 X_3_13 + 935 X_3_14
  + 493 X_4_0 + 529 X_4_1 + 126 X_4_2 + 571 X_4_3 + 463 X_4_5 + 349 X_4_6 + 90 X_4_7 + 572 X_4_8
  + 703 X_4_9 + 691 X_4_10 + 147 X_4_11 + 311 X_4_12 + 484 X_4_13 + 648 X_4_14 + 48 X_5_0 + 507 X_5_1
  + 371 X_5_2 + 137 X_5_3 + 463 X_5_4 + 180 X_5_6 + 372 X_5_7 + 303 X_5_8 + 544 X_5_9 + 314 X_5_10
  + 316 X_5_11 + 153 X_5_12 + 890 X_5_13 + 914 X_5_14 + 228 X_6_0 + 587 X_6_1 + 301 X_6_2 + 318 X_6_3
  + 349 X_6_4 + 180 X_6_5 + 265 X_6_7 + 451 X_6_8 + 674 X_6_9 + 491 X_6_10 + 214 X_6_11 + 101 X_6_12
  + 821 X_6_13 + 911 X_6_14 + 403 X_7_0 + 492 X_7_1 + 79 X_7_2 + 482 X_7_3 + 90 X_7_4 + 372 X_7_5
  + 265 X_7_6 + 498 X_7_8 + 650 X_7_9 + 609 X_7_10 + 56 X_7_11 + 220 X_7_12 + 558 X_7_13 + 685 X_7_14
  + 264 X_8_0 + 279 X_8_1 + 446 X_8_2 + 222 X_8_3 + 572 X_8_4 + 303 X_8_5 + 451 X_8_6 + 498 X_8_7
  + 243 X_8_9 + 162 X_8_10 + 457 X_8_11 + 367 X_8_12 + 855 X_8_13 + 766 X_8_14 + 506 X_9_0 + 206 X_9_1
  + 581 X_9_2 + 464 X_9_3 + 703 X_9_4 + 544 X_9_5 + 674 X_9_6 + 650 X_9_7 + 243 X_9_8 + 344 X_9_10
  + 624 X_9_11 + 580 X_9_12 + 848 X_9_13 + 666 X_9_14 + 266 X_10_0 + 435 X_10_1 + 570 X_10_2 + 181 X_10_3
  + 691 X_10_4 + 314 X_10_5 + 491 X_10_6 + 609 X_10_7 + 162 X_10_8 + 344 X_10_9 + 560 X_10_11 + 432 X_10_12
  + 1012 X_10_13 + 927 X_10_14 + 347 X_11_0 + 480 X_11_1 + 94 X_11_2 + 428 X_11_3 + 147 X_11_4 + 316 X_11_5
  + 214 X_11_6 + 56 X_11_7 + 457 X_11_8 + 624 X_11_9 + 560 X_11_10 + 164 X_11_12 + 607 X_11_13 + 715 X_11_14
  + 190 X_12_0 + 486 X_12_1 + 231 X_12_2 + 277 X_12_3 + 311 X_12_4 + 153 X_12_5 + 101 X_12_6 + 220 X_12_7
  + 367 X_12_8 + 580 X_12_9 + 432 X_12_10 + 164 X_12_11 + 758 X_12_13 + 822 X_12_14 + 904 X_13_0 + 644 X_13_1
  + 526 X_13_2 + 958 X_13_3 + 484 X_13_4 + 890 X_13_5 + 821 X_13_6 + 558 X_13_7 + 855 X_13_8 + 848 X_13_9
  + 1012 X_13_10 + 607 X_13_11 + 758 X_13_12 + 334 X_13_14 + 910 X_14_0 + 495 X_14_1 + 620 X_14_2 + 935 X_14_3
  + 648 X_14_4 + 914 X_14_5 + 911 X_14_6 + 685 X_14_7 + 766 X_14_8 + 666 X_14_9 + 927 X_14_10 + 715 X_14_11
  + 822 X_14_12 + 334 X_14_13
  <= 3
 obj4:
  + 761 X_0_1 + 466 X_0_2 + 686 X_0_3 + 443 X_0_4 + 352 X_0_5 + 509 X_0_6 + 466 X_0_7 + 600 X_0_8
  + 284 X_0_9 + 411 X_0_10 + 270 X_0_11 + 378 X_0_12 + 463 X_0_13 + 728 X_0_14 + 761 X_1_0 + 373 X_1_2
  + 383 X_1_3 + 371 X_1_4 + 544 X_1_5 + 371 X_1_6 + 806 X_1_7 + 178 X_1_8 + 901 X_1_9 + 1145 X_1_10
  + 490 X_1_11 + 1130 X_1_12 + 478 X_1_13 + 96 X_1_14 + 466 X_2_0 + 373 X_2_1 + 234 X_2_3 + 33 X_2_4
  + 173 X_2_5 + 50 X_2_6 + 437 X_2_7 + 295 X_2_8 + 691 X_2_9 + 801 X_2_10 + 241 X_2_11 + 800 X_2_12
  + 118 X_2_13 + 392 X_2_14 + 686 X_3_0 + 383 X_3_1 + 234 X_3_2 + 265 X_3_4 + 346 X_3_5 + 184 X_3_6
  + 509 X_3_7 + 414 X_3_8 + 924 X_3_9 + 977 X_3_10 + 475 X_3_11 + 988 X_3_12 + 232 X_3_13 + 451 X_3_14
  + 443 X_4_0 + 371 X_4_1 + 33 X_4_2 + 265 X_4_3 + 173 X_4_5 + 83 X_4_6 + 448 X_4_7 + 278 X_4_8
  + 662 X_4_9 + 789 X_4_10 + 210 X_4_11 + 784 X_4_12 + 140 X_4_13 + 382 X_4_14 + 352 X_5_0 + 544 X_5_1
  + 173 X_5_2 + 346 X_5_3 + 173 X_5_4 + 193 X_5_6 + 284 X_5_7 + 444 X_5_8 + 616 X_5_9 + 639 X_5_10
  + 232 X_5_11 + 644 X_5_12 + 114 X_5_13 + 554 X_5_14 + 509 X_6_0 + 371 X_6_1 + 50 X_6_2 + 184 X_6_3
  + 83 X_6_4 + 193 X_6_5 + 435 X_6_7 + 317 X_6_8 + 740 X_6_9 + 831 X_6_10 + 291 X_6_11 + 833 X_6_12
  + 107 X_6_13 + 402 X_6_14 + 466 X_7_0 + 806 X_7_1 + 437 X_7_2 + 509 X_7_3 + 448 X_7_4 + 284 X_7_5
  + 435 X_7_6 + 725 X_7_8 + 749 X_7_9 + 542 X_7_10 + 491 X_7_11 + 581 X_7_12 + 327 X_7_13 + 829 X_7_14
  + 600 X_8_0 + 178 X_8_1 + 295 X_8_2 + 414 X_8_3 + 278 X_8_4 + 444 X_8_5 + 317 X_8_6 + 725 X_8_7
  + 723 X_8_9 + 998 X_8_10 + 332 X_8_11 + 976 X_8_12 + 413 X_8_13 + 127 X_8_14 + 284 X_9_0 + 901 X_9_1
  + 691 X_9_2 + 924 X_9_3 + 662 X_9_4 + 616 X_9_5 + 740 X_9_6 + 749 X_9_7 + 723 X_9_8 + 522 X_9_10
  + 454 X_9_11 + 454 X_9_12 + 719 X_9_13 + 841 X_9_14 + 411 X_10_0 + 1145 X_10_1 + 801 X_10_2 + 977 X_10_3
  + 789 X_10_4 + 639 X_10_5 + 831 X_10_6 + 542 X_10_7 + 998 X_10_8 + 522 X_10_9 + 666 X_10_11 + 77 X_10_12
  + 747 X_10_13 + 1124 X_10_14 + 270 X_11_0 + 490 X_11_1 + 241 X_11_2 + 475 X_11_3 + 210 X_11_4 + 232 X_11_5
  + 291 X_11_6 + 491 X_11_7 + 332 X_11_8 + 454 X_11_9 + 666 X_11_10 + 644 X_11_12 + 298 X_11_13 + 459 X_11_14
  + 378 X_12_0 + 1130 X_12_1 + 800 X_12_2 + 988 X_12_3 + 784 X_12_4 + 644 X_12_5 + 833 X_12_6 + 581 X_12_7
  + 976 X_12_8 + 454 X_12_9 + 77 X_12_10 + 644 X_12_11 + 756 X_12_13 + 1103 X_12_14 + 463 X_13_0 + 478 X_13_1
  + 118 X_13_2 + 232 X_13_3 + 140 X_13_4 + 114 X_13_5 + 107 X_13_6 + 327 X_13_7 + 413 X_13_8 + 719 X_13_9
  + 747 X_13_10 + 298 X_13_11 + 756 X_13_12 + 507 X_13_14 + 728 X_14_0 + 96 X_14_1 + 392 X_14_2 + 451 X_14_3
  + 382 X_14_4 + 554 X_14_5 + 402 X_14_6 + 829 X_14_7 + 127 X_14_8 + 841 X_14_9 + 1124 X_14_10 + 459 X_14_11
  + 1103 X_14_12 + 507 X_14_13
  <= 4
 obj5:
  + 356 X_0_1 + 284 X_0_2 + 597 X_0_3 + 491 X_0_4 + 338 X_0_5 + 443 X_0_6 + 489 X_0_7 + 364 X_0_8
  + 494 X_0_9 + 470 X_0_10 + 220 X_0_11 + 768 X_0_12 + 658 X_0_13 + 295 X_0_14 + 356 X_1_0 + 640 X_1_2
  + 345 X_1_3 + 527 X_1_4 + 686 X_1_5 + 497 X_1_6 + 800 X_1_7 + 416 X_1_8 + 783 X_1_9 + 624 X_1_10
  + 178 X_1_11 + 430 X_1_12 + 614 X_1_13 + 621 X_1_14 + 284 X_2_0 + 640 X_2_1 + 843 X_2_3 + 647 X_2_4
  + 138 X_2_5 + 601 X_2_6 + 295 X_2_7 + 513 X_2_8 + 338 X_2_9 + 542 X_2_10 + 488 X_2_11 + 1050 X_2_12
  + 792 X_2_13 + 202 X_2_14 + 597 X_3_0 + 345 X_3_1 + 843 X_3_2 + 872 X_3_4 + 930 X_3_5 + 842 X_3_6
  + 895 X_3_7 + 392 X_3_8 + 851 X_3_9 + 962 X_3_10 + 380 X_3_11 + 547 X_3_12 + 391 X_3_13 + 892 X_3_14
  + 491 X_4_0 + 527 X_4_1 + 647 X_4_2 + 872 X_4_3 + 579 X_4_5 + 48 X_4_6 + 931 X_4_7 + 818 X_4_8
  + 955 X_4_9 + 184 X_4_10 + 568 X_4_11 + 682 X_4_12 + 1088 X_4_13 + 476 X_4_14 + 338 X_5_0 + 686 X_5_1
  + 138 X_5_2 + 930 X_5_3 + 579 X_5_4 + 537 X_5_6 + 415 X_5_7 + 631 X_5_8 + 467 X_5_9 + 446 X_5_10
  + 558 X_5_11 + 1069 X_5_12 + 917 X_5_13 + 103 X_5_14 + 443 X_6_0 + 497 X_6_1 + 601 X_6_2 + 842 X_6_3
  + 48 X_6_4 + 537 X_6_5 + 883 X_6_7 + 774 X_6_8 + 907 X_6_9 + 169 X_6_10 + 527 X_6_11 + 683 X_6_12
  + 1047 X_6_13 + 433 X_6_14 + 489 X_7_0 + 800 X_7_1 + 295 X_7_2 + 895 X_7_3 + 931 X_7_4 + 415 X_7_5
  + 883 X_7_6 + 506 X_7_8 + 72 X_7_9 + 837 X_7_10 + 624 X_7_11 + 1231 X_7_12 + 708 X_7_13 + 496 X_7_14
  + 364 X_8_0 + 416 X_8_1 + 513 X_8_2 + 392 X_8_3 + 818 X_8_4 + 631 X_8_5 + 774 X_8_6 + 506 X_8_7
  + 459 X_8_9 + 830 X_8_10 + 267 X_8_11 + 818 X_8_12 + 295 X_8_13 + 629 X_8_14 + 494 X_9_0 + 783 X_9_1
  + 338 X_9_2 + 851 X_9_3 + 955 X_9_4 + 467 X_9_5 + 907 X_9_6 + 72 X_9_7 + 459 X_9_8 + 873 X_9_10
  + 604 X_9_11 + 1213 X_9_12 + 644 X_9_13 + 540 X_9_14 + 470 X_10_0 + 624 X_10_1 + 542 X_10_2 + 962 X_10_3
  + 184 X_10_4 + 446 X_10_5 + 169 X_10_6 + 837 X_10_7 + 830 X_10_8 + 873 X_10_9 + 613 X_10_11 + 850 X_10_12
  + 1118 X_10_13 + 347 X_10_14 + 220 X_11_0 + 178 X_11_1 + 488 X_11_2 + 380 X_11_3 + 568 X_11_4 + 558 X_11_5
  + 527 X_11_6 + 624 X_11_7 + 267 X_11_8 + 604 X_11_9 + 613 X_11_10 + 609 X_11_12 + 520 X_11_13 + 513 X_11_14
  + 768 X_12_0 + 430 X_12_1 + 1050 X_12_2 + 547 X_12_3 + 682 X_12_4 + 1069 X_12_5 + 683 X_12_6 + 1231 X_12_7
  + 818 X_12_8 + 1213 X_12_9 + 850 X_12_10 + 609 X_12_11 + 930 X_12_13 + 986 X_12_14 + 658 X_13_0 + 614 X_13_1
  + 792 X_13_2 + 391 X_13_3 + 1088 X_13_4 + 917 X_13_5 + 1047 X_13_6 + 708 X_13_7 + 295 X_13_8 + 644 X_13_9
  + 1118 X_13_10 + 520 X_13_11 + 930 X_13_12 + 923 X_13_14 + 295 X_14_0 + 621 X_14_1 + 202 X_14_2 + 892 X_14_3
  + 476 X_14_4 + 103 X_14_5 + 433 X_14_6 + 496 X_14_7 + 629 X_14_8 + 540 X_14_9 + 347 X_14_10 + 513 X_14_11
  + 986 X_14_12 + 923 X_14_13
  <= 5
 obj6:
  + 752 X_0_1 + 1020 X_0_2 + 827 X_0_3 + 819 X_0_4 + 753 X_0_5 + 356 X_0_6 + 979 X_0_7 + 633 X_0_8
  + 866 X_0_9 + 283 X_0_10 + 289 X_0_11 + 554 X_0_12 + 512 X_0_13 + 917 X_0_14 + 752 X_1_0 + 269 X_1_2
  + 482 X_1_3 + 192 X_1_4 + 592 X_1_5 + 427 X_1_6 + 254 X_1_7 + 473 X_1_8 + 678 X_1_9 + 614 X_1_10
  + 556 X_1_11 + 197 X_1_12 + 419 X_1_13 + 527 X_1_14 + 1020 X_2_0 + 269 X_2_1 + 562 X_2_3 + 313 X_2_4
  + 763 X_2_5 + 695 X_2_6 + 171 X_2_7 + 640 X_2_8 + 820 X_2_9 + 878 X_2_10 + 822 X_2_11 + 466 X_2_12
  + 633 X_2_13 + 621 X_2_14 + 827 X_3_0 + 482 X_3_1 + 562 X_3_2 + 675 X_3_4 + 1033 X_3_5 + 676 X_3_6
  + 676 X_3_7 + 199 X_3_8 + 1135 X_3_9 + 856 X_3_10 + 797 X_3_11 + 488 X_3_12 + 316 X_3_13 + 1007 X_3_14
  + 819 X_4_0 + 192 X_4_1 + 313 X_4_2 + 675 X_4_3 + 452 X_4_5 + 464 X_4_6 + 181 X_4_7 + 658 X_4_8
  + 518 X_4_9 + 619 X_4_10 + 571 X_4_11 + 308 X_4_12 + 586 X_4_13 + 343 X_4_14 + 753 X_5_0 + 592 X_5_1
  + 763 X_5_2 + 1033 X_5_3 + 452 X_5_4 + 471 X_5_6 + 610 X_5_7 + 942 X_5_8 + 118 X_5_9 + 471 X_5_10
  + 467 X_5_11 + 549 X_5_12 + 822 X_5_13 + 231 X_5_14 + 356 X_6_0 + 427 X_6_1 + 695 X_6_2 + 676 X_6_3
  + 464 X_6_4 + 471 X_6_5 + 631 X_6_7 + 529 X_6_8 + 590 X_6_9 + 195 X_6_10 + 134 X_6_11 + 243 X_6_12
  + 394 X_6_13 + 586 X_6_14 + 979 X_7_0 + 254 X_7_1 + 171 X_7_2 + 676 X_7_3 + 181 X_7_4 + 610 X_7_5
  + 631 X_7_6 + 711 X_7_8 + 657 X_7_9 + 796 X_7_10 + 745 X_7_11 + 436 X_7_12 + 672 X_7_13 + 452 X_7_14
  + 633 X_8_0 + 473 X_8_1 + 640 X_8_2 + 199 X_8_3 + 658 X_8_4 + 942 X_8_5 + 529 X_8_6 + 711 X_8_7
  + 1052 X_8_9 + 692 X_8_10 + 636 X_8_11 + 398 X_8_12 + 136 X_8_13 + 959 X_8_14 + 866 X_9_0 + 678 X_9_1
  + 820 X_9_2 + 1135 X_9_3 + 518 X_9_4 + 118 X_9_5 + 590 X_9_6 + 657 X_9_7 + 1052 X_9_8 + 582 X_9_10
  + 583 X_9_11 + 656 X_9_12 + 936 X_9_13 + 221 X_9_14 + 283 X_10_0 + 614 X_10_1 + 878 X_10_2 + 856 X_10_3
  + 619 X_10_4 + 471 X_10_5 + 195 X_10_6 + 796 X_10_7 + 692 X_10_8 + 582 X_10_9 + 61 X_10_11 + 437 X_10_12
  + 555 X_10_13 + 649 X_10_14 + 289 X_11_0 + 556 X_11_1 + 822 X_11_2 + 797 X_11_3 + 571 X_11_4 + 467 X_11_5
  + 134 X_11_6 + 745 X_11_7 + 636 X_11_8 + 583 X_11_9 + 61 X_11_10 + 377 X_11_12 + 499 X_11_13 + 628 X_11_14
  + 554 X_12_0 + 197 X_12_1 + 466 X_12_2 + 488 X_12_3 + 308 X_12_4 + 549 X_12_5 + 243 X_12_6 + 436 X_12_7
  + 398 X_12_8 + 656 X_12_9 + 437 X_12_10 + 377 X_12_11 + 295 X_12_13 + 565 X_12_14 + 512 X_13_0 + 419 X_13_1
  + 633 X_13_2 + 316 X_13_3 + 586 X_13_4 + 822 X_13_5 + 394 X_13_6 + 672 X_13_7 + 136 X_13_8 + 936 X_13_9
  + 555 X_13_10 + 499 X_13_11 + 295 X_13_12 + 861 X_13_14 + 917 X_14_0 + 527 X_14_1 + 621 X_14_2 + 1007 X_14_3
  + 343 X_14_4 + 231 X_14_5 + 586 X_14_6 + 452 X_14_7 + 959 X_14_8 + 221 X_14_9 + 649 X_14_10 + 628 X_14_11
  + 565 X_14_12 + 861 X_14_13
  <= 6
 obj7:
  + 1023 X_0_1 + 560 X_0_2 + 217 X_0_3 + 502 X_0_4 + 1070 X_0_5 + 909 X_0_6 + 658 X_0_7 + 983 X_0_8
  + 743 X_0_9 + 931 X_0_10 + 641 X_0_11 + 806 X_0_12 + 510 X_0_13 + 1041 X_0_14 + 1023 X_1_0 + 658 X_1_2
  + 809 X_1_3 + 520 X_1_4 + 355 X_1_5 + 801 X_1_6 + 848 X_1_7 + 60 X_1_8 + 611 X_1_9 + 408 X_1_10
  + 677 X_1_11 + 230 X_1_12 + 523 X_1_13 + 198 X_1_14 + 560 X_2_0 + 658 X_2_1 + 380 X_2_3 + 336 X_2_4
  + 557 X_2_5 + 383 X_2_6 + 229 X_2_7 + 648 X_2_8 + 183 X_2_9 + 402 X_2_10 + 93 X_2_11 + 435 X_2_12
  + 404 X_2_13 + 584 X_2_14 + 217 X_3_0 + 809 X_3_1 + 380 X_3_2 + 290 X_3_4 + 858 X_3_5 + 755 X_3_6
  + 533 X_3_7 + 771 X_3_8 + 559 X_3_9 + 723 X_3_10 + 470 X_3_11 + 589 X_3_12 + 309 X_3_13 + 824 X_3_14
  + 502 X_4_0 + 520 X_4_1 + 336 X_4_2 + 290 X_4_3 + 621 X_4_5 + 692 X_4_6 + 562 X_4_7 + 481 X_4_8
  + 453 X_4_9 + 513 X_4_10 + 419 X_4_11 + 309 X_4_12 + 68 X_4_13 + 557 X_4_14 + 1070 X_5_0 + 355 X_5_1
  + 557 X_5_2 + 858 X_5_3 + 621 X_5_4 + 523 X_5_6 + 665 X_5_7 + 400 X_5_8 + 419 X_5_9 + 157 X_5_10
  + 525 X_5_11 + 352 X_5_12 + 661 X_5_13 + 157 X_5_14 + 909 X_6_0 + 801 X_6_1 + 383 X_6_2 + 755 X_6_3
  + 692 X_6_4 + 523 X_6_5 + 268 X_6_7 + 820 X_6_8 + 242 X_6_9 + 400 X_6_10 + 289 X_6_11 + 644 X_6_12
  + 760 X_6_13 + 641 X_6_14 + 658 X_7_0 + 848 X_7_1 + 229 X_7_2 + 533 X_7_3 + 562 X_7_4 + 665 X_7_5
  + 268 X_7_6 + 848 X_7_8 + 249 X_7_9 + 512 X_7_10 + 173 X_7_11 + 640 X_7_12 + 629 X_7_13 + 736 X_7_14
  + 983 X_8_0 + 60 X_8_1 + 648 X_8_2 + 771 X_8_3 + 481 X_8_4 + 400 X_8_5 + 820 X_8_6 + 848 X_8_7
  + 618 X_8_9 + 435 X_8_10 + 675 X_8_11 + 213 X_8_12 + 478 X_8_13 + 246 X_8_14 + 743 X_9_0 + 611 X_9_1
  + 183 X_9_2 + 559 X_9_3 + 453 X_9_4 + 419 X_9_5 + 242 X_9_6 + 249 X_9_7 + 618 X_9_8 + 264 X_9_10
  + 113 X_9_11 + 422 X_9_12 + 520 X_9_13 + 487 X_9_14 + 931 X_10_0 + 408 X_10_1 + 402 X_10_2 + 723 X_10_3
  + 513 X_10_4 + 157 X_10_5 + 400 X_10_6 + 512 X_10_7 + 435 X_10_8 + 264 X_10_9 + 368 X_10_11 + 305 X_10_12
  + 564 X_10_13 + 241 X_10_14 + 641 X_11_0 + 677 X_11_1 + 93 X_11_2 + 470 X_11_3 + 419 X_11_4 + 525 X_11_5
  + 289 X_11_6 + 173 X_11_7 + 675 X_11_8 + 113 X_11_9 + 368 X_11_10 + 467 X_11_12 + 487 X_11_13 + 576 X_11_14
  + 806 X_12_0 + 230 X_12_1 + 435 X_12_2 + 589 X_12_3 + 309 X_12_4 + 352 X_12_5 + 644 X_12_6 + 640 X_12_7
  + 213 X_12_8 + 422 X_12_9 + 305 X_12_10 + 467 X_12_11 + 330 X_12_13 + 254 X_12_14 + 510 X_13_0 + 523 X_13_1
  + 404 X_13_2 + 309 X_13_3 + 68 X_13_4 + 661 X_13_5 + 760 X_13_6 + 629 X_13_7 + 478 X_13_8 + 520 X_13_9
  + 564 X_13_10 + 487 X_13_11 + 330 X_13_12 + 583 X_13_14 + 1041 X_14_0 + 198 X_14_1 + 584 X_14_2 + 824 X_14_3
  + 557 X_14_4 + 157 X_14_5 + 641 X_14_6 + 736 X_14_7 + 246 X_14_8 + 487 X_14_9 + 241 X_14_10 + 576 X_14_11
  + 254 X_14_12 + 583 X_14_13
  <= 7
Bounds
 1 <= U1 <= 14
 1 <= U2 <= 14
 1 <= U3 <= 14
 1 <= U4 <= 14
 1 <= U5 <= 14
 1 <= U6 <= 14
 1 <= U7 <= 14
 1 <= U8 <= 14
 1 <= U9 <= 14
 1 <= U10 <= 14
 1 <= U11 <= 14
 1 <= U12 <= 14
 1 <= U13 <= 14
 1 <= U14 <= 14
Binary
 X_0_1
 X_0_2
 X_0_3
 X_0_4
 X_0_5
 X_0_6
 X_0_7
 X_0_8
 X_0_9
 X_0_10
 X_0_11
 X_0_12
 X_0_13
 X_0_14
 X_1_0
 X_1_2
 X_1_3
 X_1_4
 X_1_5
 X_1_6
 X_1_7
 X_1_8
 X_1_9
 X_1_10
 X_1_11
 X_1_12
 X_1_13
 X_1_14
 X_2_0
 X_2_1
 X_2_3
 X_2_4
 X_2_5
 X_2_6
 X_2_7
 X_2_8
 X_2_9
 X_2_10
 X_2_11
 X_2_12
 X_2_13
 X_2_14
 X_3_0
 X_3_1
 X_3_2
 X_3_4
 X_3_5
 X_3_6
 X_3_7
 X_3_8
 X_3_9
 X_3_10
 X_3_11
 X_3_12
 X_3_13
 X_3_14
 X_4_0
 X_4_1
 X_4_2
 X_4_3
 X_4_5
 X_4_6
 X_4_7
 X_4_8
 X_4_9
 X_4_10
 X_4_11
 X_4_12
 X_4_13
 X_4_14
 X_5_0
 X_5_1
 X_5_2
 X_5_3
 X_5_4
 X_5_6
 X_5_7
 X_5_8
 X_5_9
 X_5_10
 X_5_11
 X_5_12
 X_5_13
 X_5_14
 X_6_0
 X_6_1
 X_6_2
 X_6_3
 X_6_4
 X_6_5
 X_6_7
 X_6_8
 X_6_9
 X_6_10
 X_6_11
 X_6_12
 X_6_13
 X_6_14
 X_7_0
 X_7_1
 X_7_2
 X_7_3
 X_7_4
 X_7_5
 X_7_6
 X_7_8
 X_7_9
 X_7_10
 X_7_11
 X_7_12
 X_7_13
 X_7_14
 X_8_0
 X_8_1
 X_8_2
 X_8_3
 X_8_4
 X_8_5
 X_8_6
 X_8_7
 X_8_9
 X_8_10
 X_8_11
 X_8_12
 X_8_13
 X_8_14
 X_9_0
 X_9_1
 X_9_2
 X_9_3
 X_9_4
 X_9_5
 X_9_6
 X_9_7
 X_9_8
 X_9_10
 X_9_11
 X_9_12
 X_9_13
 X_9_14
 X_10_0
 X_10_1
 X_10_2
 X_10_3
 X_10_4
 X_10_5
 X_10_6
 X_10_7
 X_10_8
 X_10_9
 X_10_11
 X_10_12
 X_10_13
 X_10_14
 X_11_0
 X_11_1
 X_11_2
 X_11_3
 X_11_4
 X_11_5
 X_11_6
 X_11_7
 X_11_8
 X_11_9
 X_11_10
 X_11_12
 X_11_13
 X_11_14
 X_12_0
 X_12_1
 X_12_2
 X_12_3
 X_12_4
 X_12_5
 X_12_6
 X_12_7
 X_12_8
 X_12_9
 X_12_10
 X_12_11
 X_12_13
 X_12_14
 X_13_0
 X_13_1
 X_13_2
 X_13_3
 X_13_4
 X_13_5
 X_13_6
 X_13_7
 X_13_8
 X_13_9
 X_13_10
 X_13_11
 X_13_12
 X_13_14
 X_14_0
 X_14_1
 X_14_2
 X_14_3
 X_14_4
 X_14_5
 X_14_6
 X_14_7
 X_14_8
 X_14_9
 X_14_10
 X_14_11
 X_14_12
 X_14_13
End
